(set-logic ALL)
(declare-const request String)
(declare-const uri String)
(declare-const domain String)
(declare-const referer String)
(assert (not (= referer "")))
(assert (not (< (str.len uri) 0)))
(assert (str.suffixof "/" uri))
(assert (not (< (+ (- 1) (str.len uri)) 0)))
(assert (not (= referer (str.substr uri 0 (- (+ (- 1) (str.len uri)) 0)))))
(assert (not (str.contains referer "?")))
(assert (not (< (str.len referer) 0)))
(assert (> (+ 0 (str.indexof referer ":" 0)) 0))
(assert (not (< (+ 0 (str.indexof referer ":" 0)) 0)))
(assert (not (= (str.substr referer 0 (- (+ 0 (str.indexof referer ":" 0)) 0)) "http")))
(assert (not (< (+ 0 (str.indexof referer ":" 0)) 0)))
(assert (< 0 (str.len (str.substr referer 0 (- (+ 0 (str.indexof referer ":" 0)) 0)))))
(assert (< 1 (str.len (str.substr referer 0 (- (+ 0 (str.indexof referer ":" 0)) 0)))))
(assert (< 2 (str.len (str.substr referer 0 (- (+ 0 (str.indexof referer ":" 0)) 0)))))
(assert (< 3 (str.len (str.substr referer 0 (- (+ 0 (str.indexof referer ":" 0)) 0)))))
(assert (< 4 (str.len (str.substr referer 0 (- (+ 0 (str.indexof referer ":" 0)) 0)))))
(assert (not (< 5 (str.len (str.substr referer 0 (- (+ 0 (str.indexof referer ":" 0)) 0))))))
(assert (not (< (+ (+ 0 (str.indexof referer ":" 0)) 1) 0)))
(assert (not (< (str.len referer) 0)))
(assert (not (= (str.substr referer (+ (+ 0 (str.indexof referer ":" 0)) 1) (- (str.len referer) (+ (+ 0 (str.indexof referer ":" 0)) 1))) "")))
(assert (< 0 (str.len (str.substr referer (+ (+ 0 (str.indexof referer ":" 0)) 1) (- (str.len referer) (+ (+ 0 (str.indexof referer ":" 0)) 1))))))
(assert (not (< (+ 0 (str.indexof referer ":" 0)) 0)))
(assert (= (str.substr referer (+ (+ 0 (str.indexof referer ":" 0)) 1) (- (str.len referer) (+ (+ 0 (str.indexof referer ":" 0)) 1))) "//"))
(assert (not (< (str.len (str.substr referer (+ (+ 0 (str.indexof referer ":" 0)) 1) (- (str.len referer) (+ (+ 0 (str.indexof referer ":" 0)) 1)))) 0)))
(assert (>= (+ 2 (str.indexof (str.substr (str.substr referer (+ (+ 0 (str.indexof referer ":" 0)) 1) (- (str.len referer) (+ (+ 0 (str.indexof referer ":" 0)) 1))) 2 (- (str.len (str.substr referer (+ (+ 0 (str.indexof referer ":" 0)) 1) (- (str.len referer) (+ (+ 0 (str.indexof referer ":" 0)) 1)))) 2)) "/" 0)) 0))
(check-sat)
(get-value (request))
(get-value (uri))
(get-value (domain))
(get-value (referer))
